100
253
214
227
102
131
385
130
311
167
350
307
339
129
316
279
203
299
290
240
126
132
329
182
164
215
161
173
375
138
323
240
343
137
368
346
169
105
128
380
224
378
339
163
159
307
342
263
259
232
155
285
316
136
120
132
251
181
206
279
219
181
119
163
219
139
161
340
144
241
372
269
272
364
384
331
323
327
194
182
211
301
368
180
338
140
212
189
221
370
368
393
152
140
208
271
179
321
263
224
162
287
145
386
251
129
318
175
108
164
257
272
366
277
352
304
317
164
145
191
135
114
236
239
154
344
162
285
317
325
161
131
212
206
118
116
288
336
191
348
152
100
220
118
330
172
322
247
289
368
390
376
134
226
267
240
222
329
125
191
254
187
223
118
345
241
134
285
229
277
234
281
278
106
300
208
179
274
107
120
294
150
148
380
328
315
272
151
244
298
294
150
137
117
220
134
310
255
320
139
184
0
